(declare-const income Real)
(declare-const fee_bl Real)
(declare-const threshold Real)
(declare-const capital_gains_tax Real)
(declare-const tax_rate Real)
(assert (= tax_rate 0.07))
(assert (= threshold 0))
(assert (= capital_gains_tax (ite (> income threshold) (* tax_rate income) 0)))
(assert (= fee_bl capital_gains_tax))